BEGIN IONS
TITLE=CCMSLIB00012739756
CHARGE=1+
COMPOUND_NAME=AKOS034072661
ADDUCT=[M+H]1+
SMILES=Cc1nc(CNC(C)(C(=O)O)c2ccccc2)cs1
SCANS=235854
MS_MANUFACTURER=Thermo
MS_MASS_ANALYZER=orbitrap
MS_IONISATION=ESI
SPECTRUM_ID=CCMSLIB00012739756
IONMODE=positive
MS_LEVEL=2
PRECURSOR_MZ=277.101
INCHIKEY=RYTTVMXNOGCABD-UHFFFAOYSA-N
INCHI=InChI=1S/C14H16N2O2S/c1-10-16-12(9-19-10)8-15-14(2,13(17)18)11-6-4-3-5-7-11/h3-7,9,15H,8H2,1-2H3,(H,17,18)
PARENT_MASS=276.09372354790924
70.995544 0.00321
103.054237 0.020099999999999996
112.021561 0.22848
120.081169 0.00146
121.064835 0.00523
127.032318 0.00208
129.025253 0.0053
129.048004 1.0
129.056366 0.01977
129.065536 0.00676
129.070618 0.00809
129.077103 0.0034300000000000003
130.032104 0.026699999999999998
131.049057 0.012150000000000001
149.059753 0.13199
231.095306 0.21052999
242.063644 0.004050000000000001
260.074158 0.022019999999999998
277.029877 0.0017399999999999998
277.100647 0.32069000000000003
277.155426 0.00134
277.17215 0.00243
END IONS

BEGIN IONS
TITLE=CCMSLIB00004700359
CHARGE=1+
COMPOUND_NAME=(1R,7R)-7-ethenyl-1,4a,7-trimethyl-3,4,4b,5,6,9,10,10a-octahydro-2H-phenanthrene-1-carboxylic acid
ADDUCT=[M+Na]1+
SMILES=C=CC1(C)C=C2CCC3C(C)(C(=O)O)CCCC3(C)C2CC1
SCANS=818559
MS_MASS_ANALYZER=ftms
SPECTRUM_ID=CCMSLIB00004700359
IONMODE=positive
MS_LEVEL=2
PRECURSOR_MZ=325.214
INCHIKEY=MHVJRKBZMUDEEV-UHFFFAOYSA-N
INCHI=InChI=1S/C20H30O2/c1-5-18(2)12-9-15-14(13-18)7-8-16-19(15,3)10-6-11-20(16,4)17(21)22/h5,13,15-16H,1,6-12H2,2-4H3,(H,21,22)
PARENT_MASS=302.22477929990924
50.69651 0.00028613
52.544113 0.00035528
53.132843 0.00018083999999999998
53.289566 0.00018561999999999997
53.450367 0.00036989
54.404518 0.00024032
55.018627 0.006014930000000001
55.055012 0.02584772
56.380444 0.0007961
56.823265 0.00018887
56.965595 0.00227493
327.38205 0.0008801200000000001
334.887543 0.00037439
342.997162 0.0073059399999999995
344.976074 0.006321670000000001
END IONS

BEGIN IONS
TITLE=CCMSLIB00000001552
CHARGE=1+
COMPOUND_NAME=Hectochlorin
ADDUCT=[M+H]1+
SMILES=CC(=O)OC1c2nc(cs2)C(=O)OC(CCCC(C)(Cl)[37Cl])C(C)C(=O)OC(C(C)(C)O)c2nc(cs2)C(=O)OC1(C)C
SCANS=6
MS_MASS_ANALYZER=qtof
MS_IONISATION=ESI
SPECTRUM_ID=CCMSLIB00000001552
IONMODE=positive
MS_LEVEL=2
PRECURSOR_MZ=667.115
INCHIKEY=USXIYWCPCGVOKF-CRTVXBCISA-N
INCHI=InChI=1S/C27H34Cl2N2O9S2/c1-13-17(9-8-10-27(7,28)29)38-23(34)15-11-42-21(30-15)19(37-14(2)32)26(5,6)40-24(35)16-12-41-20(31-16)18(25(3,4)36)39-22(13)33/h11-13,17-19,36H,8-10H2,1-7H3/i28+2
PARENT_MASS=666.1077235479092
200.205383 0.00909036521644146
201.312088 0.0026245507648769593
202.184189 0.00303714066765311
205.254974 0.000668541688830504
206.982574 0.0004363751798558566
209.032486 0.0013445730195015418
218.05217 0.007395614300507857
219.180054 0.0020055605010596243
220.168564 0.00777332327630502
242.027893 0.009095219357671514
243.193573 0.0016782967491202137
244.113144 0.001057116830311362
254.144806 0.0007134683878404434
275.189453 0.0016169087935518503
276.259613 0.0008391167230913289
277.170776 0.00012709452365775538
283.131226 0.0005998754695367908
288.080658 0.00011938939542130214
310.139099 0.00033599061522883786
319.200684 0.0010177495710839357
339.240112 0.0009105835055058062
345.345703 0.0004274321644289635
346.210876 0.0005677592096762486
352.478333 0.0007580846845668548
363.149353 0.002668977157389954
364.372101 0.0011972417603344804
368.109222 0.0007446423187122673
370.071411 0.02369166587075674
371.081238 0.014353620445969223
372.117126 0.023564530721917082
380.917419 0.0025019160553376102
382.427826 0.0010287453563017999
383.200317 0.0008038276356042373
388.262695 0.0010542175960147491
389.123352 0.001628747289136929
390.22522 0.0032998613573107603
406.049622 0.04658535724349656
407.048828 0.05377146646334146
408.105499 0.1713769941165522
416.402466 0.0007031654797485647
423.149506 0.0010387673387082285
424.263 0.0044941198090448576
425.219299 0.007600164180603954
425.968079 0.01711109696815953
430.053955 0.0024304715907874134
431.029572 0.000922644327722487
432.186523 0.0008153063237541959
436.881104 0.00025801260913339337
440.986481 0.001035123926092915
449.141693 0.0006592843767045074
458.337006 0.0001220123883693572
460.371857 0.0004524428359842504
465.396118 0.0016157074704048994
466.358398 0.01015424063538649
467.167389 0.01584472538750484
468.067596 0.019833853414117256
469.29068 0.00021632074024940874
503.287231 0.0005666249068112748
504.178986 0.0012307977075609528
505.224945 0.0005021526902383058
507.081726 0.0019468427164037309
508.185944 0.001363133820231098
509.079987 0.004343604667952062
511.124298 0.001764595580551206
512.039185 0.0018275123144220287
512.984985 0.00048407837065793
525.199768 0.007251833254738845
526.47644 0.002718860388449844
527.241821 0.003175115944668139
537.352112 0.0004194760769253434
544.256226 0.0031354533020105193
545.137817 0.008782844219783821
547.123718 0.001942295538367453
548.071167 0.007392537652413062
549.103882 0.018461061278836045
552.041504 0.00018381579425826662
553.132324 0.0010281399224307615
561.092285 0.002220894367426956
562.148865 0.014896922661442685
563.066345 0.04302652977188435
565.9552 0.0010207358278040517
567.140869 0.003062590379086057
569.247192 0.03350336338205904
570.125854 0.020218937360935545
571.176636 0.0406763350939361
573.120789 0.0004631576955166648
587.070068 0.0032832014257677335
588.076172 0.0033597029884350404
588.984314 0.02136179053891002
589.602722 0.0019553039177711454
605.033691 0.039278607519343804
606.080688 0.4582267301267453
607.065552 1.0
607.994751 0.005485147182491802
609.033203 0.007660995897037148
610.75116 0.0007684735630036269
623.19751 0.006265165961807534
624.035645 0.014528966880939052
624.927429 0.04795760478954476
625.57019 0.00021376773410006675
629.005005 0.02703820917363681
630.078735 0.03840105789896165
631.136719 0.03844558619247433
648.021484 0.0049611655260285254
648.940125 0.008695544915636087
649.588867 0.000581755463299057
END IONS
