BEGIN IONS
NAME=(S)-quinacrine
DESCRIPTION=MCEBIO
EXACTMASS=399.20774
FORMULA=C23H30ClN3O
INCHI=InChI=1S/C23H30ClN3O/c1-5-27(6-2)13-7-8-16(3)25-23-19-11-9-17(24)14-22(19)26-21-12-10-18(28-4)15-20(21)23/h9-12,14-16H,5-8,13H2,1-4H3,(H,25,26)/t16-/m0/s1
INCHIAUX=GPKJTRJOBQGKQK-INIZCTEOSA-N
SMILES=CCN(CC)CCC[C@H](C)Nc1c2ccc(Cl)cc2nc2ccc(OC)cc12
FEATURE_ID=20230201_pluskal_mce_1D3_H20_id_negative.mzML msn trees:7
MSLEVEL=2
RTINSECONDS=115.83
ADDUCT=[M-H]-
PEPMASS=398.20046
CHARGE=-1
FEATURE_MS1_HEIGHT=1.007E6
SPECTYPE=ALL_MSN_TO_PSEUDO_MS2
COLLISION_ENERGY=[20.0, 30.0, 60.0, 40.0]
FRAGMENTATION_METHOD=HCD
ISOLATION_WINDOW=1.2000000476839432
ACQUISITION=Commercial
INSTRUMENT_TYPE=Orbitrap
SOURCE_INSTRUMENT=Orbitrap ID-X
IMS_TYPE=none
ION_SOURCE=ESI
IONMODE=Negative
PI=Tomas Pluskal
DATACOLLECTOR=Corinna Brungs
DATASET_ID=MSV000094528
USI=[mzspec:MSV000094528:20230201_pluskal_mce_1D3_H20_id_negative:392, mzspec:MSV000094528:20230201_pluskal_mce_1D3_H20_id_negative:393, mzspec:MSV000094528:20230201_pluskal_mce_1D3_H20_id_negative:394, mzspec:MSV000094528:20230201_pluskal_mce_1D3_H20_id_negative:395, mzspec:MSV000094528:20230201_pluskal_mce_1D3_H20_id_negative:396, mzspec:MSV000094528:20230201_pluskal_mce_1D3_H20_id_negative:397]
SCANS=392-397
PRECURSOR_PURITY=1.0
QUALITY_CHIMERIC=PASSED
QUALITY_EXPLAINED_INTENSITY=0.89003575
QUALITY_EXPLAINED_SIGNALS=0.75
Num peaks=8
119.04998 5.354
206.081589 6.507
241.052612 4.792
269.04718 4.631
347.197815 5.872
354.062592 10.834
383.175331 19.713
398.198829 100
END IONS

BEGIN IONS
NAME=Fraxin
DESCRIPTION=MCEBIO
EXACTMASS=370.09
FORMULA=C16H18O10
INCHI=InChI=1S/C16H18O10/c1-23-7-4-6-2-3-9(18)25-14(6)15(11(7)20)26-16-13(22)12(21)10(19)8(5-17)24-16/h2-4,8,10,12-13,16-17,19-22H,5H2,1H3/t8-,10-,12+,13-,16+/m1/s1
INCHIAUX=CRSFLLTWRCYNNX-QBNNUVSCSA-N
SMILES=COc1c(O)c(O[C@@H]2O[C@H](CO)[C@@H](O)[C@H](O)[C@H]2O)c2oc(=O)ccc2c1
FEATURE_ID=20230130_pluskal_mce_1D1_F15_id_negative.mzML msn trees:2
MSLEVEL=2
RTINSECONDS=78.69
ADDUCT=[M-H]-
PEPMASS=369.08272
CHARGE=-1
FEATURE_MS1_HEIGHT=2.86E6
SPECTYPE=ALL_ENERGIES
COLLISION_ENERGY=[20.0, 30.0, 60.0]
FRAGMENTATION_METHOD=HCD
ISOLATION_WINDOW=1.2000000476839432
ACQUISITION=Commercial
INSTRUMENT_TYPE=Orbitrap
SOURCE_INSTRUMENT=Orbitrap ID-X
IMS_TYPE=none
ION_SOURCE=ESI
IONMODE=Negative
PI=Tomas Pluskal
DATACOLLECTOR=Corinna Brungs
DATASET_ID=MSV000094528
USI=[mzspec:MSV000094528:20230130_pluskal_mce_1D1_F15_id_negative:164, mzspec:MSV000094528:20230130_pluskal_mce_1D1_F15_id_negative:165, mzspec:MSV000094528:20230130_pluskal_mce_1D1_F15_id_negative:166]
SCANS=164-166
PRECURSOR_PURITY=1.0
QUALITY_CHIMERIC=PASSED
QUALITY_EXPLAINED_INTENSITY=0.9847163
QUALITY_EXPLAINED_SIGNALS=0.8
Num peaks=30
41.008442 1.612
41.010674 1.085
69.034164 0.51
85.029579 0.322
107.013542 2.029
108.021355 2
119.013481 0.841
120.021355 0.931
123.008347 1.207
135.008469 5.969
147.008331 0.532
150.032135 0.616
163.003326 14.977
164.011169 1.563
175.003387 0.79
190.998123 37.545
191.01416 0.588
192.005995 55.687
192.022766 0.801
192.046631 0.415
193.013672 0.829
205.012855 0.471
206.021822 14.606
206.983988 0.691
207.029549 100
207.066391 0.503
207.075592 0.755
354.05794 3.211
369.081331 71.027
369.189056 0.37
END IONS


BEGIN IONS
NAME=Lck inhibitor 2
DESCRIPTION=MCEBIO
EXACTMASS=335.13822
FORMULA=C18H17N5O2
INCHI=InChI=1S/C18H17N5O2/c1-11-5-6-14(24)10-15(11)22-16-7-8-20-18(23-16)21-13-4-2-3-12(9-13)17(19)25/h2-10,24H,1H3,(H2,19,25)(H2,20,21,22,23)
INCHIAUX=SFCBIFOAGRZJNX-UHFFFAOYSA-N
SMILES=Cc1c(Nc2nc(Nc3cccc(C(N)=O)c3)ncc2)cc(O)cc1
FEATURE_ID=20230201_pluskal_mce_1D3_H20_id_negative.mzML msn trees:6
MSLEVEL=2
RTINSECONDS=112.10
ADDUCT=[M+FA]-
PEPMASS=380.13643
CHARGE=-1
FEATURE_MS1_HEIGHT=6.469E5
SPECTYPE=ALL_MSN_TO_PSEUDO_MS2
COLLISION_ENERGY=[20.0, 15.0, 60.0, 40.0]
FRAGMENTATION_METHOD=HCD
ISOLATION_WINDOW=1.2000000476839432
ACQUISITION=Commercial
INSTRUMENT_TYPE=Orbitrap
SOURCE_INSTRUMENT=Orbitrap ID-X
IMS_TYPE=none
ION_SOURCE=ESI
IONMODE=Negative
PI=Tomas Pluskal
DATACOLLECTOR=Corinna Brungs
DATASET_ID=MSV000094528
USI=[mzspec:MSV000094528:20230201_pluskal_mce_1D3_H20_id_negative:225, mzspec:MSV000094528:20230201_pluskal_mce_1D3_H20_id_negative:226, mzspec:MSV000094528:20230201_pluskal_mce_1D3_H20_id_negative:227, mzspec:MSV000094528:20230201_pluskal_mce_1D3_H20_id_negative:228, mzspec:MSV000094528:20230201_pluskal_mce_1D3_H20_id_negative:229, mzspec:MSV000094528:20230201_pluskal_mce_1D3_H20_id_negative:230, mzspec:MSV000094528:20230201_pluskal_mce_1D3_H20_id_negative:231, mzspec:MSV000094528:20230201_pluskal_mce_1D3_H20_id_negative:232, mzspec:MSV000094528:20230201_pluskal_mce_1D3_H20_id_negative:233]
SCANS=225-233
PRECURSOR_PURITY=1.0
QUALITY_CHIMERIC=PASSED
QUALITY_EXPLAINED_INTENSITY=1.0
QUALITY_EXPLAINED_SIGNALS=1.0
Num peaks=17
41.99824 5.135
44.997695 51.889
45.00013 2.746
65.014224 19.323
65.998413 1.255
92.025287 1.847
120.045309 17.557
122.060888 72.859
146.072177 4.821
160.051281 5.568
172.087845 2.083
186.06691 1.16
211.061859 1.433
229.072327 3.299
240.113358 2.395
316.118866 3.418
334.129298 100
END IONS