NAME: 1-NITROPYRENE; EI-B; MS
EXACTMASS: 247.0633285
FORMULA: C16H9NO2
SMILES: [O-1][N+1](=O)c(c4)c(c1)c(c3c4)c(c2cc3)c(ccc2)c1
ONTOLOGY: Pyrenes
INCHIKEY: ALRLPDGCPYIVHP-UHFFFAOYSA-N
RETENTIONTIME: -1
RETENTIONINDEX: 1872.217
QUANTMASS: 201
IONMODE: Positive
COLLISIONENERGY: 70eV
LICENSE: CC BY-SA
Comment: source=downloaded from msdial website
Num Peaks: 75
51	27
55	80
57	73
58	13
59	13
60	140
61	13
62	33
63	33
66	13
68	87
70	20
72	53
73	73
74	33
75	27
76	20
78	13
80	40
81	20
82	13
83	33
86	127
87	87
92	20
93	100
94	60
98	147
99	833
100	607
104	40
107	13
108	13
110	33
112	13
113	13
115	13
116	13
120	13
122	40
123	27
124	27
125	20
126	13
134	13
135	20
137	13
147	13
149	20
150	47
151	33
159	20
162	20
163	27
173	20
174	87
175	47
177	20
187	53
188	47
189	567
190	120
191	167
198	107
199	93
200	727
201	999
202	160
203	13
207	13
214	13
217	253
218	53
247	527
248	102

NAME: 2,4-DINITROPHENOL; EI-B; MS
EXACTMASS: 184.0120212
FORMULA: C6H4N2O5
SMILES: [O-1][N+1](=O)c(c1)cc([N+1]([O-1])=O)c(O)c1
ONTOLOGY: Dinitrophenols
INCHIKEY: UFBJCMHMOXMLKC-UHFFFAOYSA-N
RETENTIONTIME: -1
RETENTIONINDEX: 1547.829
QUANTMASS: 184
IONMODE: Positive
COLLISIONENERGY: 70eV
LICENSE: CC BY-SA
Comment:
Num Peaks: 64
51	272
52	199
53	618
54	68
55	140
56	39
57	115
60	64
61	134
62	362
63	614
64	262
65	67
66	51
67	74
68	103
69	292
70	55
71	61
73	41
74	39
75	35
76	43
77	62
78	51
79	351
80	99
81	160
82	54
83	61
84	30
85	30
90	120
91	533
92	283
93	183
94	35
95	64
96	54
97	51
98	24
105	38
106	64
107	390
108	71
109	40
111	26
120	21
121	45
122	40
123	31
126	21
136	28
137	31
138	36
149	41
153	40
154	393
155	32
168	33
183	33
184	999
185	82
186	13

NAME: Glucolesquerellin
PRECURSORMZ: 448.0775180239999
PRECURSORTYPE: [M-H]-
IONMODE: Negative
FORMULA: C14H27NO9S3
SMILES: CSCCCCCCC(=NOS(=O)(=O)O)S[C@H]1[C@@H]([C@H]([C@@H]([C@H](O1)CO)O)O)O
INCHIKEY: ZAKICGFSIJSCSF-LPUQOGTASA-N
IONIZATION: ESI
INSTRUMENTTYPE: LC-ESI-QTOF
COLLISIONENERGY: 40 eV
RETENTIONTIME: 4.0667
CCS: 189.9914404
ONTOLOGY: Alkylglucosinolates
COMMENT: DB#=SMI00034; origin=MassBank High Quality Mass Spectral Database; source=downloaded from msdial website
Num Peaks: 2
95.949	1000
96.957	833