NAME: Ochratoxin B ethyl ester
PRECURSORMZ: 398.1593
PRECURSORTYPE: [M+H]+
FORMULA: C22H23NO6
INCHIKEY: XXAVUHHKDMGGBR-UHFFFAOYSA-N
INCHI: InChI=1S/C22H23NO6/c1-3-28-21(26)17(12-14-7-5-4-6-8-14)23-20(25)16-10-9-15-11-13(2)29-22(27)18(15)19(16)24/h4-10,13,17,24H,3,11-12H2,1-2H3,(H,23,25)
SMILES: CCOC(=O)C(Cc1ccccc1)N=C(O)c1ccc2c(c1O)C(=O)OC(C)C2
RETENTIONTIME: UNKNOWN
IONMODE: positive
INSTRUMENTTYPE: LC-ESI-ITFT
INSTRUMENT: Thermo Fisher Scientific Q-Exactive
COLLISIONENERGY: 40(NCE)
EXACTMASS: 397.1525374559999
IONIZATION: ESI
MSLEVEL: 2
COMMENT: FILENAME=MassBank_NIST.msp; PREDICTED=false; FRAGHUBID=8ee8494c7b0eaf40281ccff28433849e02e001ee70ad77a83ff03ba7be38ff18; SPECTRUMID=MSBNK-AAFC-AC000799; RESOLUTION=HIGH; SYNON=Ethyl 2-[(8-hydroxy-3-methyl-1-oxo-isochroman-7-carbonyl)amino]-3-phenyl-propanoate; FRAGMENTATIONMODE=UNKNOWN; AVERAGEMASS=397.42700000000013
NUM PEAKS: 24
51.50990000 0.07907908
57.17740000 0.07307307
59.47760000 0.06606607
63.62940000 0.06706707
67.46400000 0.07007007
68.50990000 0.07807808
106.06510000 0.18018018
107.78310000 0.07507508
110.08980000 0.07707708
120.08080000 0.85485485
130.06510000 0.14814815
179.09410000 0.09309309
217.08590000 0.32732733
235.44800000 0.10110110
236.09170000 0.13113113
268.82640000 0.07907908
298.95140000 0.09309309
307.13290000 0.18418418
324.15940000 0.40140140
327.14650000 0.16616617
328.15430000 0.15215215
361.75410000 0.09509510
370.16490000 1.00000000
380.14920000 0.13013013